(set-logic QF_S)
(set-option :strings-exp true)
(set-option :produce-models true)
(declare-fun sigmaStar_0 () String)
(declare-fun literal_6 () String)
(assert (= literal_6 "\x20\x3c\x69\x6e\x70\x75\x74\x20\x74\x79\x70\x65\x3d\x5c\x22\x74\x65\x78\x74\x5c\x22\x20\x6e\x61\x6d\x65\x3d\x5c\x22\x6e\x61\x6d\x65\x5c\x22\x20\x73\x69\x7a\x65\x3d\x5c\x22\x33\x35\x5c\x22\x20\x76\x61\x6c\x75\x65\x3d\x5c\x22\x66\x69\x6c\x65\x5c\x22\x20\x2f\x3e\x5c\x6e"))
(assert (str.in.re literal_6 (re.++ (re.* re.allchar) (re.++ (str.to.re "\x5c\x3c\x53\x43\x52\x49\x50\x54") (re.* re.allchar)))))
(check-sat)
(get-model)
